HFSDDW
15	8	4
0	42	1	52	2	19	3	54
0	47	1	11	2	73	3	61
0	51	1	36	2	15	3	82
0	78	1	97	2	79	3	30
0	98	1	68	2	30	3	29
0	63	1	92	2	49	3	77
0	16	1	79	2	6	3	16
0	52	1	2	2	92	3	94
0	96	1	43	2	11	3	80
0	29	1	52	2	82	3	80
0	30	1	37	2	40	3	6
0	18	1	54	2	7	3	44
0	62	1	20	2	32	3	12
0	83	1	30	2	78	3	50
0	4	1	42	2	39	3	67
LBCmax: 473
RELDUE
-1	72	3	5
-1	321	4	6
-1	89	6	7
-1	284	6	5
-1	256	3	7
-1	144	8	2
-1	454	7	6
-1	214	6	7
-1	458	8	2
-1	518	2	7
-1	52	7	3
-1	268	9	6
-1	453	9	7
-1	277	7	6
-1	516	6	2
DDW
66	78
311	331
85	93
273	295
241	271
130	158
422	486
195	233
421	495
466	570
49	55
265	271
417	489
252	302
480	552
